n = 20;
budget = 2531000;
groceries = [|45,171,117,109,980|132,72,12,97,1085|9,99,108,102,1492|145,60,70,89,2785|203,259,98,162,3187|171,243,225,102,3036|10,120,90,56,1916|108,657,153,137,3851|63,153,18,105,3747|99,486,261,126,2070|80,540,260,81,2562|54,189,243,64,3453|66,144,252,140,1450|12,216,474,190,2813|72,132,30,63,1907|27,279,495,165,1195|27,288,153,147,2650|14,126,154,82,1659|40,130,150,185,1919|50,660,200,68,2192|];
requirements = [|342,414|1800,1800|513,558|];
offset = [|34,82|900,1170|128,195|];
variety = 7;